# Variables
variable sysname index mixture
variable rname index restart.npt											
variable simname index melt_quench

# Initialization
units			    real										
boundary			p p p										
atom_style		    full										
log			        log.${sysname}_${simname}									

# Force Fields
neighbor			2.0 bin										
neigh_modify		delay 0 every 1 check yes	
special_bonds		lj/coul 0.0 0.0 0.5						 								 
bond_style		    harmonic										
angle_style		    harmonic
dihedral_style      fourier
pair_style		    lj/cut/coul/long 12.0													
kspace_style        pppm 1.0e-4											

# Atom Definitions 					
read_restart		../npt/${rname}

# Settings
fix 			    1 all nvt temp 500.0 500.0 100.0
thermo			    1000
thermo_style	    custom step temp press pe ke vol lx density
timestep		    1.0								
reset_timestep	    0	
run			        2000000								
unfix 			    1								
write_restart	    restart.melt
write_data 		    data.melt

# Settings - Quench 450 K 
fix 			    2 all nvt temp 450.0 450.0 100.0
reset_timestep	    0	
run			        750000								
unfix 			    2								
write_restart	    restart.quench_450K
write_data 		    data.quench_450K

# Settings - Quench 400 K 
fix 			    3 all nvt temp 400.0 400.0 100.0
reset_timestep	    0	
run			        750000								
unfix 			    3								
write_restart	    restart.quench_400K
write_data 		    data.quench_400K

# Settings - Quench 350 K 
fix 			    4 all nvt temp 350.0 350.0 100.0
reset_timestep	    0	
run			        750000								
unfix 			    4								
write_restart	    restart.quench_350K
write_data 		    data.quench_350K

# Settings - Quench 298.15 K 
fix 			    5 all nvt temp 298.15 298.15 100.0
reset_timestep	    0	
run			        750000								
unfix 			    5								
write_restart	    restart.quench_298K
write_data 		    data.quench_298K
